10J3M/DAT/10J3MNTR-11.dat
10 3
32.3694 25.1196
26.0745 34.8506
18.556 34.5637
27.7705 16.2569
21.3258 45.3445
26.4375 31.9764
25.0543 35.7709
22.3736 10.5165
28.2506 26.051
24.1895 47.0162
76.8666