10J3M/SOL/10J3MNTR-11.sol
solution status: optimal solution found
objective value:                     79.0761392528557
x#2#1                                0.27391866941106 	(obj:0)
x#2#3                               0.304954559833747 	(obj:0)
x#3#3                                               1 	(obj:0)
x#4#3                                               1 	(obj:0)
x#5#1                                               1 	(obj:0)
x#6#1                              0.0618160404882781 	(obj:0)
x#6#2                               0.938183959511722 	(obj:0)
x#7#1                                               1 	(obj:0)
x#8#2                                               1 	(obj:0)
x#9#1                               0.186346485047163 	(obj:0)
x#9#2                               0.813653514952837 	(obj:0)
x#10#1                              0.324330975788557 	(obj:0)
x#10#3                              0.675669024211443 	(obj:0)
z                                    79.0761392528557 	(obj:1)
